(declare-const c_0 Real)
(declare-const c_1 Real)
(declare-const c_2 Real)
(declare-const c_3 Real)
(declare-const c_4 Real)
(declare-const c_5 Real)
(declare-const c_6 Real)
(declare-const c_7 Real)
(declare-const c_8 Real)
(declare-const c_9 Real)
(declare-const c_10 Real)
(declare-const c_11 Real)
(declare-const c_12 Real)
(declare-const c_13 Real)
(declare-const c_14 Real)
(declare-const c_15 Real)
(declare-const c_16 Real)
(declare-const c_17 Real)
(declare-const c_18 Real)
(declare-const c_19 Real)
(declare-const c_20 Real)
(declare-const c_21 Real)
(declare-const c_22 Real)
(declare-const c_23 Real)
(declare-const c_24 Real)
(declare-const c_25 Real)
(declare-const c_26 Real)
(declare-const c_27 Real)
(declare-const c_28 Real)
(declare-const c_29 Real)
(declare-const s_0 Real)
(declare-const s_1 Real)
(declare-const s_2 Real)
(declare-const s_3 Real)
(declare-const s_4 Real)
(declare-const s_5 Real)
(declare-const s_6 Real)
(declare-const s_7 Real)
(declare-const s_8 Real)
(declare-const s_9 Real)
(declare-const s_10 Real)
(declare-const s_11 Real)
(declare-const s_12 Real)
(declare-const s_13 Real)
(declare-const s_14 Real)
(declare-const s_15 Real)
(declare-const s_16 Real)
(declare-const s_17 Real)
(declare-const s_18 Real)
(declare-const s_19 Real)
(declare-const s_20 Real)
(declare-const s_21 Real)
(declare-const s_22 Real)
(declare-const s_23 Real)
(declare-const s_24 Real)
(declare-const s_25 Real)
(declare-const s_26 Real)
(declare-const s_27 Real)
(declare-const s_28 Real)
(declare-const s_29 Real)
(assert (forall ((t Real) (i Real) (j Real) ) (=> (and (>= (+ (* 1024 1) (* 1 t ) ) 0) (>= (+ (* 1023 1) (* (- 1) t ) ) 0) (>= (+ (* 1024 1) (* 1 i ) ) 0) (>= (+ (* 1023 1) (* (- 1) i ) ) 0) (>= (+ (* 1024 1) (* 1 j ) ) 0) (>= (+ (* 1023 1) (* (- 1) j ) ) 0) ) (>= (+ (* 1 i j s_2 ) (* 1 i s_1 ) (* 1 i s_3 t ) (* 1 i i s_4 ) (* 1 j s_5 ) (* 1 j s_6 t ) (* 1 j j s_7 ) (* 1 s_0 ) (* 1 s_8 t ) (* 1 s_9 t t ) ) 0) )))
(assert (forall ((t Real) (i Real) (j Real) ) (=> (and (>= (+ (* 1024 1) (* 1 t ) ) 0) (>= (+ (* 1023 1) (* (- 1) t ) ) 0) (>= (+ (* 1024 1) (* 1 i ) ) 0) (>= (+ (* 1023 1) (* (- 1) i ) ) 0) (>= (+ (* 1024 1) (* 1 j ) ) 0) (>= (+ (* 1023 1) (* (- 1) j ) ) 0) ) (>= (+ (* 1 c_0 ) (* 1 c_1 i ) (* 1 c_2 i j ) (* 1 c_3 i t ) (* 1 c_4 i i ) (* 1 c_5 j ) (* 1 c_6 j t ) (* 1 c_7 j j ) (* 1 c_8 t ) (* 1 c_9 t t ) ) 0) )))
(assert (forall ((t Real) (i Real) (j Real) ) (=> (and (>= (+ (* 1023 1) (* (- 1) j ) ) 0) (>= (+ (* 1024 1) (* 1 j ) ) 0) (>= (+ (* 1023 1) (* (- 1) i ) ) 0) (>= (+ (* 1024 1) (* 1 i ) ) 0) (>= (+ (* 1023 1) (* (- 1) t ) ) 0) (>= (+ (* 1024 1) (* 1 t ) ) 0) (>= (+ (* 1 i j s_2 ) (* 1 i s_1 ) (* 1 i s_3 t ) (* 1 i i s_4 ) (* 1 j s_5 ) (* 1 j s_6 t ) (* 1 j j s_7 ) (* 1 s_0 ) (* 1 s_8 t ) (* 1 s_9 t t ) ) 0) ) (>= (+ (* 1 i j s_12 ) (* 1 i s_11 ) (* 1 i i s_14 ) (* 1 j s_15 ) (* 1 j j s_17 ) (* 1 s_10 ) ) 0) )))
(assert (forall ((t Real) (i Real) (j Real) ) (=> (and (>= (+ (* 1023 1) (* (- 1) j ) ) 0) (>= (+ (* 1024 1) (* 1 j ) ) 0) (>= (+ (* 1023 1) (* (- 1) i ) ) 0) (>= (+ (* 1024 1) (* 1 i ) ) 0) (>= (+ (* 1023 1) (* (- 1) t ) ) 0) (>= (+ (* 1024 1) (* 1 t ) ) 0) (>= (+ (* 1 i j s_2 ) (* 1 i s_1 ) (* 1 i s_3 t ) (* 1 i i s_4 ) (* 1 j s_5 ) (* 1 j s_6 t ) (* 1 j j s_7 ) (* 1 s_0 ) (* 1 s_8 t ) (* 1 s_9 t t ) ) 0) ) (>= (+ (* 1 c_10 ) (* 1 c_11 i ) (* 1 c_12 i j ) (* 1 c_14 i i ) (* 1 c_15 j ) (* 1 c_17 j j ) ) 0) )))
(assert (forall ((t Real) (i Real) (j Real) ) (=> (and (>= (+ (* 1023 1) (* (- 1) j ) ) 0) (>= (+ (* 1024 1) (* 1 j ) ) 0) (>= (+ (* 1023 1) (* (- 1) i ) ) 0) (>= (+ (* 1024 1) (* 1 i ) ) 0) (>= (+ (* 1023 1) (* (- 1) t ) ) 0) (>= (+ (* 1024 1) (* 1 t ) ) 0) (>= (+ (* 1 i j s_2 ) (* 1 i s_1 ) (* 1 i s_3 t ) (* 1 i i s_4 ) (* 1 j s_5 ) (* 1 j s_6 t ) (* 1 j j s_7 ) (* 1 s_0 ) (* 1 s_8 t ) (* 1 s_9 t t ) ) 0) ) (>= (+ (* (- 1) 1) (* 1 c_0 ) (* 1 c_1 i ) (* (- 1) c_10 ) (* (- 1) c_11 i ) (* (- 1) c_12 i j ) (* (- 1) c_14 i i ) (* (- 1) c_15 j ) (* (- 1) c_17 j j ) (* 1 c_2 i j ) (* 1 c_3 i t ) (* 1 c_4 i i ) (* 1 c_5 j ) (* 1 c_6 j t ) (* 1 c_7 j j ) (* 1 c_8 t ) (* 1 c_9 t t ) ) 0) )))
(assert (forall ((t Real) (i Real) (j Real) ) (=> (and (>= (+ (* (- 1) 1) (* (- 1) i ) ) 0) (>= (+ (* (- 1) 1) (* (- 1) j ) ) 0) (>= (+ (* 1047552 1) (* (- 1024) j ) (* 2047 t ) ) 0) (>= (+ (* 1024 1) (* 1 i ) ) 0) (>= (+ (* 1024 1) (* 1 j ) ) 0) (>= (+ (* 1023 1) (* (- 1) j ) ) 0) (>= (+ (* 1023 1) (* (- 1) i ) ) 0) (>= (+ (* 1047552 1) (* 1023 j ) (* (- 2047) t ) ) 0) (>= (+ (* 1 i j s_12 ) (* 1 i s_11 ) (* 1 i s_13 t ) (* 1 i i s_14 ) (* 1 j s_15 ) (* 1 j s_16 t ) (* 1 j j s_17 ) (* 1 s_10 ) (* 1 s_18 t ) (* 1 s_19 t t ) ) 0) ) (>= (+ (* 1 i j s_12 ) (* 1 i j s_13 ) (* 1 i s_15 ) (* 1 i s_18 ) (* 1 i i s_16 ) (* 1 i i s_17 ) (* 1 i i s_19 ) (* 1 j s_11 ) (* 1 j j s_14 ) (* 1 s_10 ) ) 0) )))
(assert (forall ((t Real) (i Real) (j Real) ) (=> (and (>= (+ (* (- 1) 1) (* (- 1) i ) ) 0) (>= (+ (* (- 1) 1) (* (- 1) j ) ) 0) (>= (+ (* 1047552 1) (* (- 1024) j ) (* 2047 t ) ) 0) (>= (+ (* 1024 1) (* 1 i ) ) 0) (>= (+ (* 1024 1) (* 1 j ) ) 0) (>= (+ (* 1023 1) (* (- 1) j ) ) 0) (>= (+ (* 1023 1) (* (- 1) i ) ) 0) (>= (+ (* 1047552 1) (* 1023 j ) (* (- 2047) t ) ) 0) (>= (+ (* 1 i j s_12 ) (* 1 i s_11 ) (* 1 i s_13 t ) (* 1 i i s_14 ) (* 1 j s_15 ) (* 1 j s_16 t ) (* 1 j j s_17 ) (* 1 s_10 ) (* 1 s_18 t ) (* 1 s_19 t t ) ) 0) ) (>= (+ (* 1 c_10 ) (* 1 c_11 j ) (* 1 c_12 i j ) (* 1 c_13 i j ) (* 1 c_14 j j ) (* 1 c_15 i ) (* 1 c_16 i i ) (* 1 c_17 i i ) (* 1 c_18 i ) (* 1 c_19 i i ) ) 0) )))
(assert (forall ((t Real) (i Real) (j Real) ) (=> (and (>= (+ (* (- 1) 1) (* (- 1) i ) ) 0) (>= (+ (* (- 1) 1) (* (- 1) j ) ) 0) (>= (+ (* 1047552 1) (* (- 1024) j ) (* 2047 t ) ) 0) (>= (+ (* 1024 1) (* 1 i ) ) 0) (>= (+ (* 1024 1) (* 1 j ) ) 0) (>= (+ (* 1023 1) (* (- 1) j ) ) 0) (>= (+ (* 1023 1) (* (- 1) i ) ) 0) (>= (+ (* 1047552 1) (* 1023 j ) (* (- 2047) t ) ) 0) (>= (+ (* 1 i j s_12 ) (* 1 i s_11 ) (* 1 i s_13 t ) (* 1 i i s_14 ) (* 1 j s_15 ) (* 1 j s_16 t ) (* 1 j j s_17 ) (* 1 s_10 ) (* 1 s_18 t ) (* 1 s_19 t t ) ) 0) ) (>= (+ (* (- 1) 1) (* 1 c_11 i ) (* (- 1) c_11 j ) (* (- 1) c_13 i j ) (* 1 c_13 i t ) (* 1 c_14 i i ) (* (- 1) c_14 j j ) (* (- 1) c_15 i ) (* 1 c_15 j ) (* (- 1) c_16 i i ) (* 1 c_16 j t ) (* (- 1) c_17 i i ) (* 1 c_17 j j ) (* (- 1) c_18 i ) (* 1 c_18 t ) (* (- 1) c_19 i i ) (* 1 c_19 t t ) ) 0) )))
(assert (forall ((t Real) (i Real) (j Real) ) (=> (and (>= (+ (* (- 1) 1) (* (- 1) i ) ) 0) (>= (+ (* (- 1) 1) (* 1 j ) ) 0) (>= (+ (* 1047552 1) (* (- 1024) j ) (* 2047 t ) ) 0) (>= (+ (* 1024 1) (* 1 i ) ) 0) (>= (+ (* 1024 1) (* 1 j ) ) 0) (>= (+ (* 1023 1) (* (- 1) j ) ) 0) (>= (+ (* 1023 1) (* (- 1) i ) ) 0) (>= (+ (* 1047552 1) (* 1023 j ) (* (- 2047) t ) ) 0) (>= (+ (* 1 i j s_12 ) (* 1 i s_11 ) (* 1 i s_13 t ) (* 1 i i s_14 ) (* 1 j s_15 ) (* 1 j s_16 t ) (* 1 j j s_17 ) (* 1 s_10 ) (* 1 s_18 t ) (* 1 s_19 t t ) ) 0) ) (>= (+ (* 1 i j s_12 ) (* 1 i j s_13 ) (* 1 i s_15 ) (* 1 i s_18 ) (* 1 i i s_16 ) (* 1 i i s_17 ) (* 1 i i s_19 ) (* 1 j s_11 ) (* 1 j j s_14 ) (* 1 s_10 ) ) 0) )))
(assert (forall ((t Real) (i Real) (j Real) ) (=> (and (>= (+ (* (- 1) 1) (* (- 1) i ) ) 0) (>= (+ (* (- 1) 1) (* 1 j ) ) 0) (>= (+ (* 1047552 1) (* (- 1024) j ) (* 2047 t ) ) 0) (>= (+ (* 1024 1) (* 1 i ) ) 0) (>= (+ (* 1024 1) (* 1 j ) ) 0) (>= (+ (* 1023 1) (* (- 1) j ) ) 0) (>= (+ (* 1023 1) (* (- 1) i ) ) 0) (>= (+ (* 1047552 1) (* 1023 j ) (* (- 2047) t ) ) 0) (>= (+ (* 1 i j s_12 ) (* 1 i s_11 ) (* 1 i s_13 t ) (* 1 i i s_14 ) (* 1 j s_15 ) (* 1 j s_16 t ) (* 1 j j s_17 ) (* 1 s_10 ) (* 1 s_18 t ) (* 1 s_19 t t ) ) 0) ) (>= (+ (* 1 c_10 ) (* 1 c_11 j ) (* 1 c_12 i j ) (* 1 c_13 i j ) (* 1 c_14 j j ) (* 1 c_15 i ) (* 1 c_16 i i ) (* 1 c_17 i i ) (* 1 c_18 i ) (* 1 c_19 i i ) ) 0) )))
(assert (forall ((t Real) (i Real) (j Real) ) (=> (and (>= (+ (* (- 1) 1) (* (- 1) i ) ) 0) (>= (+ (* (- 1) 1) (* 1 j ) ) 0) (>= (+ (* 1047552 1) (* (- 1024) j ) (* 2047 t ) ) 0) (>= (+ (* 1024 1) (* 1 i ) ) 0) (>= (+ (* 1024 1) (* 1 j ) ) 0) (>= (+ (* 1023 1) (* (- 1) j ) ) 0) (>= (+ (* 1023 1) (* (- 1) i ) ) 0) (>= (+ (* 1047552 1) (* 1023 j ) (* (- 2047) t ) ) 0) (>= (+ (* 1 i j s_12 ) (* 1 i s_11 ) (* 1 i s_13 t ) (* 1 i i s_14 ) (* 1 j s_15 ) (* 1 j s_16 t ) (* 1 j j s_17 ) (* 1 s_10 ) (* 1 s_18 t ) (* 1 s_19 t t ) ) 0) ) (>= (+ (* (- 1) 1) (* 1 c_11 i ) (* (- 1) c_11 j ) (* (- 1) c_13 i j ) (* 1 c_13 i t ) (* 1 c_14 i i ) (* (- 1) c_14 j j ) (* (- 1) c_15 i ) (* 1 c_15 j ) (* (- 1) c_16 i i ) (* 1 c_16 j t ) (* (- 1) c_17 i i ) (* 1 c_17 j j ) (* (- 1) c_18 i ) (* 1 c_18 t ) (* (- 1) c_19 i i ) (* 1 c_19 t t ) ) 0) )))
(assert (forall ((t Real) (i Real) (j Real) ) (=> (and (>= (+ (* (- 1) 1) (* 1 i ) ) 0) (>= (+ (* (- 1) 1) (* (- 1) j ) ) 0) (>= (+ (* 1047552 1) (* (- 1024) j ) (* 2047 t ) ) 0) (>= (+ (* 1024 1) (* 1 i ) ) 0) (>= (+ (* 1024 1) (* 1 j ) ) 0) (>= (+ (* 1023 1) (* (- 1) j ) ) 0) (>= (+ (* 1023 1) (* (- 1) i ) ) 0) (>= (+ (* 1047552 1) (* 1023 j ) (* (- 2047) t ) ) 0) (>= (+ (* 1 i j s_12 ) (* 1 i s_11 ) (* 1 i s_13 t ) (* 1 i i s_14 ) (* 1 j s_15 ) (* 1 j s_16 t ) (* 1 j j s_17 ) (* 1 s_10 ) (* 1 s_18 t ) (* 1 s_19 t t ) ) 0) ) (>= (+ (* 1 i j s_12 ) (* 1 i j s_13 ) (* 1 i s_15 ) (* 1 i s_18 ) (* 1 i i s_16 ) (* 1 i i s_17 ) (* 1 i i s_19 ) (* 1 j s_11 ) (* 1 j j s_14 ) (* 1 s_10 ) ) 0) )))
(assert (forall ((t Real) (i Real) (j Real) ) (=> (and (>= (+ (* (- 1) 1) (* 1 i ) ) 0) (>= (+ (* (- 1) 1) (* (- 1) j ) ) 0) (>= (+ (* 1047552 1) (* (- 1024) j ) (* 2047 t ) ) 0) (>= (+ (* 1024 1) (* 1 i ) ) 0) (>= (+ (* 1024 1) (* 1 j ) ) 0) (>= (+ (* 1023 1) (* (- 1) j ) ) 0) (>= (+ (* 1023 1) (* (- 1) i ) ) 0) (>= (+ (* 1047552 1) (* 1023 j ) (* (- 2047) t ) ) 0) (>= (+ (* 1 i j s_12 ) (* 1 i s_11 ) (* 1 i s_13 t ) (* 1 i i s_14 ) (* 1 j s_15 ) (* 1 j s_16 t ) (* 1 j j s_17 ) (* 1 s_10 ) (* 1 s_18 t ) (* 1 s_19 t t ) ) 0) ) (>= (+ (* 1 c_10 ) (* 1 c_11 j ) (* 1 c_12 i j ) (* 1 c_13 i j ) (* 1 c_14 j j ) (* 1 c_15 i ) (* 1 c_16 i i ) (* 1 c_17 i i ) (* 1 c_18 i ) (* 1 c_19 i i ) ) 0) )))
(assert (forall ((t Real) (i Real) (j Real) ) (=> (and (>= (+ (* (- 1) 1) (* 1 i ) ) 0) (>= (+ (* (- 1) 1) (* (- 1) j ) ) 0) (>= (+ (* 1047552 1) (* (- 1024) j ) (* 2047 t ) ) 0) (>= (+ (* 1024 1) (* 1 i ) ) 0) (>= (+ (* 1024 1) (* 1 j ) ) 0) (>= (+ (* 1023 1) (* (- 1) j ) ) 0) (>= (+ (* 1023 1) (* (- 1) i ) ) 0) (>= (+ (* 1047552 1) (* 1023 j ) (* (- 2047) t ) ) 0) (>= (+ (* 1 i j s_12 ) (* 1 i s_11 ) (* 1 i s_13 t ) (* 1 i i s_14 ) (* 1 j s_15 ) (* 1 j s_16 t ) (* 1 j j s_17 ) (* 1 s_10 ) (* 1 s_18 t ) (* 1 s_19 t t ) ) 0) ) (>= (+ (* (- 1) 1) (* 1 c_11 i ) (* (- 1) c_11 j ) (* (- 1) c_13 i j ) (* 1 c_13 i t ) (* 1 c_14 i i ) (* (- 1) c_14 j j ) (* (- 1) c_15 i ) (* 1 c_15 j ) (* (- 1) c_16 i i ) (* 1 c_16 j t ) (* (- 1) c_17 i i ) (* 1 c_17 j j ) (* (- 1) c_18 i ) (* 1 c_18 t ) (* (- 1) c_19 i i ) (* 1 c_19 t t ) ) 0) )))
(assert (forall ((t Real) (i Real) (j Real) ) (=> (and (>= (+ (* (- 1) 1) (* 1 i ) ) 0) (>= (+ (* (- 1) 1) (* 1 j ) ) 0) (>= (+ (* 1047552 1) (* (- 1024) j ) (* 2047 t ) ) 0) (>= (+ (* 1024 1) (* 1 i ) ) 0) (>= (+ (* 1024 1) (* 1 j ) ) 0) (>= (+ (* 1023 1) (* (- 1) j ) ) 0) (>= (+ (* 1023 1) (* (- 1) i ) ) 0) (>= (+ (* 1047552 1) (* 1023 j ) (* (- 2047) t ) ) 0) (>= (+ (* 1 i j s_12 ) (* 1 i s_11 ) (* 1 i s_13 t ) (* 1 i i s_14 ) (* 1 j s_15 ) (* 1 j s_16 t ) (* 1 j j s_17 ) (* 1 s_10 ) (* 1 s_18 t ) (* 1 s_19 t t ) ) 0) ) (>= (+ (* 1 i j s_12 ) (* 1 i j s_13 ) (* 1 i s_15 ) (* 1 i s_18 ) (* 1 i i s_16 ) (* 1 i i s_17 ) (* 1 i i s_19 ) (* 1 j s_11 ) (* 1 j j s_14 ) (* 1 s_10 ) ) 0) )))
(assert (forall ((t Real) (i Real) (j Real) ) (=> (and (>= (+ (* (- 1) 1) (* 1 i ) ) 0) (>= (+ (* (- 1) 1) (* 1 j ) ) 0) (>= (+ (* 1047552 1) (* (- 1024) j ) (* 2047 t ) ) 0) (>= (+ (* 1024 1) (* 1 i ) ) 0) (>= (+ (* 1024 1) (* 1 j ) ) 0) (>= (+ (* 1023 1) (* (- 1) j ) ) 0) (>= (+ (* 1023 1) (* (- 1) i ) ) 0) (>= (+ (* 1047552 1) (* 1023 j ) (* (- 2047) t ) ) 0) (>= (+ (* 1 i j s_12 ) (* 1 i s_11 ) (* 1 i s_13 t ) (* 1 i i s_14 ) (* 1 j s_15 ) (* 1 j s_16 t ) (* 1 j j s_17 ) (* 1 s_10 ) (* 1 s_18 t ) (* 1 s_19 t t ) ) 0) ) (>= (+ (* 1 c_10 ) (* 1 c_11 j ) (* 1 c_12 i j ) (* 1 c_13 i j ) (* 1 c_14 j j ) (* 1 c_15 i ) (* 1 c_16 i i ) (* 1 c_17 i i ) (* 1 c_18 i ) (* 1 c_19 i i ) ) 0) )))
(assert (forall ((t Real) (i Real) (j Real) ) (=> (and (>= (+ (* (- 1) 1) (* 1 i ) ) 0) (>= (+ (* (- 1) 1) (* 1 j ) ) 0) (>= (+ (* 1047552 1) (* (- 1024) j ) (* 2047 t ) ) 0) (>= (+ (* 1024 1) (* 1 i ) ) 0) (>= (+ (* 1024 1) (* 1 j ) ) 0) (>= (+ (* 1023 1) (* (- 1) j ) ) 0) (>= (+ (* 1023 1) (* (- 1) i ) ) 0) (>= (+ (* 1047552 1) (* 1023 j ) (* (- 2047) t ) ) 0) (>= (+ (* 1 i j s_12 ) (* 1 i s_11 ) (* 1 i s_13 t ) (* 1 i i s_14 ) (* 1 j s_15 ) (* 1 j s_16 t ) (* 1 j j s_17 ) (* 1 s_10 ) (* 1 s_18 t ) (* 1 s_19 t t ) ) 0) ) (>= (+ (* (- 1) 1) (* 1 c_11 i ) (* (- 1) c_11 j ) (* (- 1) c_13 i j ) (* 1 c_13 i t ) (* 1 c_14 i i ) (* (- 1) c_14 j j ) (* (- 1) c_15 i ) (* 1 c_15 j ) (* (- 1) c_16 i i ) (* 1 c_16 j t ) (* (- 1) c_17 i i ) (* 1 c_17 j j ) (* (- 1) c_18 i ) (* 1 c_18 t ) (* (- 1) c_19 i i ) (* 1 c_19 t t ) ) 0) )))
(assert (forall ((t Real) (i Real) (j Real) ) (=> (and (>= (* 1 i ) 0) (>= (* (- 1) i ) 0) (>= (+ (* 1047552 1) (* (- 1024) j ) (* 2047 t ) ) 0) (>= (+ (* 1024 1) (* 1 i ) ) 0) (>= (+ (* 1024 1) (* 1 j ) ) 0) (>= (+ (* 1023 1) (* (- 1) j ) ) 0) (>= (+ (* 1023 1) (* (- 1) i ) ) 0) (>= (+ (* 1047552 1) (* 1023 j ) (* (- 2047) t ) ) 0) (>= (+ (* 1 i j s_12 ) (* 1 i s_11 ) (* 1 i s_13 t ) (* 1 i i s_14 ) (* 1 j s_15 ) (* 1 j s_16 t ) (* 1 j j s_17 ) (* 1 s_10 ) (* 1 s_18 t ) (* 1 s_19 t t ) ) 0) ) (>= (+ (* 1 i j s_22 ) (* 1 i s_21 ) (* 1 i s_23 t ) (* 1 i i s_24 ) (* 1 j s_25 ) (* 1 j s_26 t ) (* 1 j j s_27 ) (* 1 s_20 ) (* 1 s_28 t ) (* 1 s_29 t t ) ) 0) )))
(assert (forall ((t Real) (i Real) (j Real) ) (=> (and (>= (* 1 i ) 0) (>= (* (- 1) i ) 0) (>= (+ (* 1047552 1) (* (- 1024) j ) (* 2047 t ) ) 0) (>= (+ (* 1024 1) (* 1 i ) ) 0) (>= (+ (* 1024 1) (* 1 j ) ) 0) (>= (+ (* 1023 1) (* (- 1) j ) ) 0) (>= (+ (* 1023 1) (* (- 1) i ) ) 0) (>= (+ (* 1047552 1) (* 1023 j ) (* (- 2047) t ) ) 0) (>= (+ (* 1 i j s_12 ) (* 1 i s_11 ) (* 1 i s_13 t ) (* 1 i i s_14 ) (* 1 j s_15 ) (* 1 j s_16 t ) (* 1 j j s_17 ) (* 1 s_10 ) (* 1 s_18 t ) (* 1 s_19 t t ) ) 0) ) (>= (+ (* 1 c_20 ) (* 1 c_21 i ) (* 1 c_22 i j ) (* 1 c_23 i t ) (* 1 c_24 i i ) (* 1 c_25 j ) (* 1 c_26 j t ) (* 1 c_27 j j ) (* 1 c_28 t ) (* 1 c_29 t t ) ) 0) )))
(assert (forall ((t Real) (i Real) (j Real) ) (=> (and (>= (* 1 j ) 0) (>= (* 1 i ) 0) (>= (* (- 1) i ) 0) (>= (+ (* 1047552 1) (* (- 1024) j ) (* 2047 t ) ) 0) (>= (+ (* 1024 1) (* 1 i ) ) 0) (>= (+ (* 1024 1) (* 1 j ) ) 0) (>= (+ (* 1023 1) (* (- 1) j ) ) 0) (>= (+ (* 1023 1) (* (- 1) i ) ) 0) (>= (+ (* 1047552 1) (* 1023 j ) (* (- 2047) t ) ) 0) (>= (+ (* 1 i j s_12 ) (* 1 i s_11 ) (* 1 i s_13 t ) (* 1 i i s_14 ) (* 1 j s_15 ) (* 1 j s_16 t ) (* 1 j j s_17 ) (* 1 s_10 ) (* 1 s_18 t ) (* 1 s_19 t t ) ) 0) ) (>= (+ (* 1 i j s_22 ) (* 1 i s_21 ) (* 1 i s_23 t ) (* 1 i i s_24 ) (* 1 j s_25 ) (* 1 j s_26 t ) (* 1 j j s_27 ) (* 1 s_20 ) (* 1 s_28 t ) (* 1 s_29 t t ) ) 0) )))
(assert (forall ((t Real) (i Real) (j Real) ) (=> (and (>= (* 1 j ) 0) (>= (* 1 i ) 0) (>= (* (- 1) i ) 0) (>= (+ (* 1047552 1) (* (- 1024) j ) (* 2047 t ) ) 0) (>= (+ (* 1024 1) (* 1 i ) ) 0) (>= (+ (* 1024 1) (* 1 j ) ) 0) (>= (+ (* 1023 1) (* (- 1) j ) ) 0) (>= (+ (* 1023 1) (* (- 1) i ) ) 0) (>= (+ (* 1047552 1) (* 1023 j ) (* (- 2047) t ) ) 0) (>= (+ (* 1 i j s_12 ) (* 1 i s_11 ) (* 1 i s_13 t ) (* 1 i i s_14 ) (* 1 j s_15 ) (* 1 j s_16 t ) (* 1 j j s_17 ) (* 1 s_10 ) (* 1 s_18 t ) (* 1 s_19 t t ) ) 0) ) (>= (+ (* 1 c_20 ) (* 1 c_21 i ) (* 1 c_22 i j ) (* 1 c_23 i t ) (* 1 c_24 i i ) (* 1 c_25 j ) (* 1 c_26 j t ) (* 1 c_27 j j ) (* 1 c_28 t ) (* 1 c_29 t t ) ) 0) )))
(assert (forall ((t Real) (i Real) (j Real) ) (=> (and (>= (* 1 i ) 0) (>= (* (- 1) j ) 0) (>= (* (- 1) i ) 0) (>= (+ (* 1047552 1) (* (- 1024) j ) (* 2047 t ) ) 0) (>= (+ (* 1024 1) (* 1 i ) ) 0) (>= (+ (* 1024 1) (* 1 j ) ) 0) (>= (+ (* 1023 1) (* (- 1) j ) ) 0) (>= (+ (* 1023 1) (* (- 1) i ) ) 0) (>= (+ (* 1047552 1) (* 1023 j ) (* (- 2047) t ) ) 0) (>= (+ (* 1 i j s_12 ) (* 1 i s_11 ) (* 1 i s_13 t ) (* 1 i i s_14 ) (* 1 j s_15 ) (* 1 j s_16 t ) (* 1 j j s_17 ) (* 1 s_10 ) (* 1 s_18 t ) (* 1 s_19 t t ) ) 0) ) (>= (+ (* 1 i j s_22 ) (* 1 i s_21 ) (* 1 i s_23 t ) (* 1 i i s_24 ) (* 1 j s_25 ) (* 1 j s_26 t ) (* 1 j j s_27 ) (* 1 s_20 ) (* 1 s_28 t ) (* 1 s_29 t t ) ) 0) )))
(assert (forall ((t Real) (i Real) (j Real) ) (=> (and (>= (* 1 i ) 0) (>= (* (- 1) j ) 0) (>= (* (- 1) i ) 0) (>= (+ (* 1047552 1) (* (- 1024) j ) (* 2047 t ) ) 0) (>= (+ (* 1024 1) (* 1 i ) ) 0) (>= (+ (* 1024 1) (* 1 j ) ) 0) (>= (+ (* 1023 1) (* (- 1) j ) ) 0) (>= (+ (* 1023 1) (* (- 1) i ) ) 0) (>= (+ (* 1047552 1) (* 1023 j ) (* (- 2047) t ) ) 0) (>= (+ (* 1 i j s_12 ) (* 1 i s_11 ) (* 1 i s_13 t ) (* 1 i i s_14 ) (* 1 j s_15 ) (* 1 j s_16 t ) (* 1 j j s_17 ) (* 1 s_10 ) (* 1 s_18 t ) (* 1 s_19 t t ) ) 0) ) (>= (+ (* 1 c_20 ) (* 1 c_21 i ) (* 1 c_22 i j ) (* 1 c_23 i t ) (* 1 c_24 i i ) (* 1 c_25 j ) (* 1 c_26 j t ) (* 1 c_27 j j ) (* 1 c_28 t ) (* 1 c_29 t t ) ) 0) )))
(assert (forall ((t Real) (i Real) (j Real) ) (=> (and (>= (* 1 j ) 0) (>= (* (- 1) j ) 0) (>= (* (- 1) i ) 0) (>= (+ (* 1047552 1) (* (- 1024) j ) (* 2047 t ) ) 0) (>= (+ (* 1024 1) (* 1 i ) ) 0) (>= (+ (* 1024 1) (* 1 j ) ) 0) (>= (+ (* 1023 1) (* (- 1) j ) ) 0) (>= (+ (* 1023 1) (* (- 1) i ) ) 0) (>= (+ (* 1047552 1) (* 1023 j ) (* (- 2047) t ) ) 0) (>= (+ (* 1 i j s_12 ) (* 1 i s_11 ) (* 1 i s_13 t ) (* 1 i i s_14 ) (* 1 j s_15 ) (* 1 j s_16 t ) (* 1 j j s_17 ) (* 1 s_10 ) (* 1 s_18 t ) (* 1 s_19 t t ) ) 0) ) (>= (+ (* 1 i j s_22 ) (* 1 i s_21 ) (* 1 i s_23 t ) (* 1 i i s_24 ) (* 1 j s_25 ) (* 1 j s_26 t ) (* 1 j j s_27 ) (* 1 s_20 ) (* 1 s_28 t ) (* 1 s_29 t t ) ) 0) )))
(assert (forall ((t Real) (i Real) (j Real) ) (=> (and (>= (* 1 j ) 0) (>= (* (- 1) j ) 0) (>= (* (- 1) i ) 0) (>= (+ (* 1047552 1) (* (- 1024) j ) (* 2047 t ) ) 0) (>= (+ (* 1024 1) (* 1 i ) ) 0) (>= (+ (* 1024 1) (* 1 j ) ) 0) (>= (+ (* 1023 1) (* (- 1) j ) ) 0) (>= (+ (* 1023 1) (* (- 1) i ) ) 0) (>= (+ (* 1047552 1) (* 1023 j ) (* (- 2047) t ) ) 0) (>= (+ (* 1 i j s_12 ) (* 1 i s_11 ) (* 1 i s_13 t ) (* 1 i i s_14 ) (* 1 j s_15 ) (* 1 j s_16 t ) (* 1 j j s_17 ) (* 1 s_10 ) (* 1 s_18 t ) (* 1 s_19 t t ) ) 0) ) (>= (+ (* 1 c_20 ) (* 1 c_21 i ) (* 1 c_22 i j ) (* 1 c_23 i t ) (* 1 c_24 i i ) (* 1 c_25 j ) (* 1 c_26 j t ) (* 1 c_27 j j ) (* 1 c_28 t ) (* 1 c_29 t t ) ) 0) )))
(assert (forall ((t Real) (i Real) (j Real) ) (=> (and (>= (* 1 i ) 0) (>= (* 1 j ) 0) (>= (* (- 1) i ) 0) (>= (+ (* 1047552 1) (* (- 1024) j ) (* 2047 t ) ) 0) (>= (+ (* 1024 1) (* 1 i ) ) 0) (>= (+ (* 1024 1) (* 1 j ) ) 0) (>= (+ (* 1023 1) (* (- 1) j ) ) 0) (>= (+ (* 1023 1) (* (- 1) i ) ) 0) (>= (+ (* 1047552 1) (* 1023 j ) (* (- 2047) t ) ) 0) (>= (+ (* 1 i j s_12 ) (* 1 i s_11 ) (* 1 i s_13 t ) (* 1 i i s_14 ) (* 1 j s_15 ) (* 1 j s_16 t ) (* 1 j j s_17 ) (* 1 s_10 ) (* 1 s_18 t ) (* 1 s_19 t t ) ) 0) ) (>= (+ (* 1 i j s_22 ) (* 1 i s_21 ) (* 1 i s_23 t ) (* 1 i i s_24 ) (* 1 j s_25 ) (* 1 j s_26 t ) (* 1 j j s_27 ) (* 1 s_20 ) (* 1 s_28 t ) (* 1 s_29 t t ) ) 0) )))
(assert (forall ((t Real) (i Real) (j Real) ) (=> (and (>= (* 1 i ) 0) (>= (* 1 j ) 0) (>= (* (- 1) i ) 0) (>= (+ (* 1047552 1) (* (- 1024) j ) (* 2047 t ) ) 0) (>= (+ (* 1024 1) (* 1 i ) ) 0) (>= (+ (* 1024 1) (* 1 j ) ) 0) (>= (+ (* 1023 1) (* (- 1) j ) ) 0) (>= (+ (* 1023 1) (* (- 1) i ) ) 0) (>= (+ (* 1047552 1) (* 1023 j ) (* (- 2047) t ) ) 0) (>= (+ (* 1 i j s_12 ) (* 1 i s_11 ) (* 1 i s_13 t ) (* 1 i i s_14 ) (* 1 j s_15 ) (* 1 j s_16 t ) (* 1 j j s_17 ) (* 1 s_10 ) (* 1 s_18 t ) (* 1 s_19 t t ) ) 0) ) (>= (+ (* 1 c_20 ) (* 1 c_21 i ) (* 1 c_22 i j ) (* 1 c_23 i t ) (* 1 c_24 i i ) (* 1 c_25 j ) (* 1 c_26 j t ) (* 1 c_27 j j ) (* 1 c_28 t ) (* 1 c_29 t t ) ) 0) )))
(assert (forall ((t Real) (i Real) (j Real) ) (=> (and (>= (* 1 j ) 0) (>= (* 1 i ) 0) (>= (* (- 1) i ) 0) (>= (+ (* 1047552 1) (* (- 1024) j ) (* 2047 t ) ) 0) (>= (+ (* 1024 1) (* 1 i ) ) 0) (>= (+ (* 1024 1) (* 1 j ) ) 0) (>= (+ (* 1023 1) (* (- 1) j ) ) 0) (>= (+ (* 1023 1) (* (- 1) i ) ) 0) (>= (+ (* 1047552 1) (* 1023 j ) (* (- 2047) t ) ) 0) (>= (+ (* 1 i j s_12 ) (* 1 i s_11 ) (* 1 i s_13 t ) (* 1 i i s_14 ) (* 1 j s_15 ) (* 1 j s_16 t ) (* 1 j j s_17 ) (* 1 s_10 ) (* 1 s_18 t ) (* 1 s_19 t t ) ) 0) ) (>= (+ (* 1 i j s_22 ) (* 1 i s_21 ) (* 1 i s_23 t ) (* 1 i i s_24 ) (* 1 j s_25 ) (* 1 j s_26 t ) (* 1 j j s_27 ) (* 1 s_20 ) (* 1 s_28 t ) (* 1 s_29 t t ) ) 0) )))
(assert (forall ((t Real) (i Real) (j Real) ) (=> (and (>= (* 1 j ) 0) (>= (* 1 i ) 0) (>= (* (- 1) i ) 0) (>= (+ (* 1047552 1) (* (- 1024) j ) (* 2047 t ) ) 0) (>= (+ (* 1024 1) (* 1 i ) ) 0) (>= (+ (* 1024 1) (* 1 j ) ) 0) (>= (+ (* 1023 1) (* (- 1) j ) ) 0) (>= (+ (* 1023 1) (* (- 1) i ) ) 0) (>= (+ (* 1047552 1) (* 1023 j ) (* (- 2047) t ) ) 0) (>= (+ (* 1 i j s_12 ) (* 1 i s_11 ) (* 1 i s_13 t ) (* 1 i i s_14 ) (* 1 j s_15 ) (* 1 j s_16 t ) (* 1 j j s_17 ) (* 1 s_10 ) (* 1 s_18 t ) (* 1 s_19 t t ) ) 0) ) (>= (+ (* 1 c_20 ) (* 1 c_21 i ) (* 1 c_22 i j ) (* 1 c_23 i t ) (* 1 c_24 i i ) (* 1 c_25 j ) (* 1 c_26 j t ) (* 1 c_27 j j ) (* 1 c_28 t ) (* 1 c_29 t t ) ) 0) )))
(assert (forall ((t Real) (i Real) (j Real) ) (=> (and (>= (* 1 i ) 0) (>= (* (- 1) j ) 0) (>= (* 1 j ) 0) (>= (* (- 1) i ) 0) (>= (+ (* 1047552 1) (* (- 1024) j ) (* 2047 t ) ) 0) (>= (+ (* 1024 1) (* 1 i ) ) 0) (>= (+ (* 1024 1) (* 1 j ) ) 0) (>= (+ (* 1023 1) (* (- 1) j ) ) 0) (>= (+ (* 1023 1) (* (- 1) i ) ) 0) (>= (+ (* 1047552 1) (* 1023 j ) (* (- 2047) t ) ) 0) (>= (+ (* 1 i j s_12 ) (* 1 i s_11 ) (* 1 i s_13 t ) (* 1 i i s_14 ) (* 1 j s_15 ) (* 1 j s_16 t ) (* 1 j j s_17 ) (* 1 s_10 ) (* 1 s_18 t ) (* 1 s_19 t t ) ) 0) ) (>= (+ (* 1 i j s_22 ) (* 1 i s_21 ) (* 1 i s_23 t ) (* 1 i i s_24 ) (* 1 j s_25 ) (* 1 j s_26 t ) (* 1 j j s_27 ) (* 1 s_20 ) (* 1 s_28 t ) (* 1 s_29 t t ) ) 0) )))
(assert (forall ((t Real) (i Real) (j Real) ) (=> (and (>= (* 1 i ) 0) (>= (* (- 1) j ) 0) (>= (* 1 j ) 0) (>= (* (- 1) i ) 0) (>= (+ (* 1047552 1) (* (- 1024) j ) (* 2047 t ) ) 0) (>= (+ (* 1024 1) (* 1 i ) ) 0) (>= (+ (* 1024 1) (* 1 j ) ) 0) (>= (+ (* 1023 1) (* (- 1) j ) ) 0) (>= (+ (* 1023 1) (* (- 1) i ) ) 0) (>= (+ (* 1047552 1) (* 1023 j ) (* (- 2047) t ) ) 0) (>= (+ (* 1 i j s_12 ) (* 1 i s_11 ) (* 1 i s_13 t ) (* 1 i i s_14 ) (* 1 j s_15 ) (* 1 j s_16 t ) (* 1 j j s_17 ) (* 1 s_10 ) (* 1 s_18 t ) (* 1 s_19 t t ) ) 0) ) (>= (+ (* 1 c_20 ) (* 1 c_21 i ) (* 1 c_22 i j ) (* 1 c_23 i t ) (* 1 c_24 i i ) (* 1 c_25 j ) (* 1 c_26 j t ) (* 1 c_27 j j ) (* 1 c_28 t ) (* 1 c_29 t t ) ) 0) )))
(assert (forall ((t Real) (i Real) (j Real) ) (=> (and (>= (* 1 j ) 0) (>= (* (- 1) j ) 0) (>= (* (- 1) i ) 0) (>= (+ (* 1047552 1) (* (- 1024) j ) (* 2047 t ) ) 0) (>= (+ (* 1024 1) (* 1 i ) ) 0) (>= (+ (* 1024 1) (* 1 j ) ) 0) (>= (+ (* 1023 1) (* (- 1) j ) ) 0) (>= (+ (* 1023 1) (* (- 1) i ) ) 0) (>= (+ (* 1047552 1) (* 1023 j ) (* (- 2047) t ) ) 0) (>= (+ (* 1 i j s_12 ) (* 1 i s_11 ) (* 1 i s_13 t ) (* 1 i i s_14 ) (* 1 j s_15 ) (* 1 j s_16 t ) (* 1 j j s_17 ) (* 1 s_10 ) (* 1 s_18 t ) (* 1 s_19 t t ) ) 0) ) (>= (+ (* 1 i j s_22 ) (* 1 i s_21 ) (* 1 i s_23 t ) (* 1 i i s_24 ) (* 1 j s_25 ) (* 1 j s_26 t ) (* 1 j j s_27 ) (* 1 s_20 ) (* 1 s_28 t ) (* 1 s_29 t t ) ) 0) )))
(assert (forall ((t Real) (i Real) (j Real) ) (=> (and (>= (* 1 j ) 0) (>= (* (- 1) j ) 0) (>= (* (- 1) i ) 0) (>= (+ (* 1047552 1) (* (- 1024) j ) (* 2047 t ) ) 0) (>= (+ (* 1024 1) (* 1 i ) ) 0) (>= (+ (* 1024 1) (* 1 j ) ) 0) (>= (+ (* 1023 1) (* (- 1) j ) ) 0) (>= (+ (* 1023 1) (* (- 1) i ) ) 0) (>= (+ (* 1047552 1) (* 1023 j ) (* (- 2047) t ) ) 0) (>= (+ (* 1 i j s_12 ) (* 1 i s_11 ) (* 1 i s_13 t ) (* 1 i i s_14 ) (* 1 j s_15 ) (* 1 j s_16 t ) (* 1 j j s_17 ) (* 1 s_10 ) (* 1 s_18 t ) (* 1 s_19 t t ) ) 0) ) (>= (+ (* 1 c_20 ) (* 1 c_21 i ) (* 1 c_22 i j ) (* 1 c_23 i t ) (* 1 c_24 i i ) (* 1 c_25 j ) (* 1 c_26 j t ) (* 1 c_27 j j ) (* 1 c_28 t ) (* 1 c_29 t t ) ) 0) )))
(assert (forall ((t Real) (i Real) (j Real) ) (=> (and (>= (* 1 i ) 0) (>= (* (- 1) i ) 0) (>= (* (- 1) j ) 0) (>= (+ (* 1047552 1) (* (- 1024) j ) (* 2047 t ) ) 0) (>= (+ (* 1024 1) (* 1 i ) ) 0) (>= (+ (* 1024 1) (* 1 j ) ) 0) (>= (+ (* 1023 1) (* (- 1) j ) ) 0) (>= (+ (* 1023 1) (* (- 1) i ) ) 0) (>= (+ (* 1047552 1) (* 1023 j ) (* (- 2047) t ) ) 0) (>= (+ (* 1 i j s_12 ) (* 1 i s_11 ) (* 1 i s_13 t ) (* 1 i i s_14 ) (* 1 j s_15 ) (* 1 j s_16 t ) (* 1 j j s_17 ) (* 1 s_10 ) (* 1 s_18 t ) (* 1 s_19 t t ) ) 0) ) (>= (+ (* 1 i j s_22 ) (* 1 i s_21 ) (* 1 i s_23 t ) (* 1 i i s_24 ) (* 1 j s_25 ) (* 1 j s_26 t ) (* 1 j j s_27 ) (* 1 s_20 ) (* 1 s_28 t ) (* 1 s_29 t t ) ) 0) )))
(assert (forall ((t Real) (i Real) (j Real) ) (=> (and (>= (* 1 i ) 0) (>= (* (- 1) i ) 0) (>= (* (- 1) j ) 0) (>= (+ (* 1047552 1) (* (- 1024) j ) (* 2047 t ) ) 0) (>= (+ (* 1024 1) (* 1 i ) ) 0) (>= (+ (* 1024 1) (* 1 j ) ) 0) (>= (+ (* 1023 1) (* (- 1) j ) ) 0) (>= (+ (* 1023 1) (* (- 1) i ) ) 0) (>= (+ (* 1047552 1) (* 1023 j ) (* (- 2047) t ) ) 0) (>= (+ (* 1 i j s_12 ) (* 1 i s_11 ) (* 1 i s_13 t ) (* 1 i i s_14 ) (* 1 j s_15 ) (* 1 j s_16 t ) (* 1 j j s_17 ) (* 1 s_10 ) (* 1 s_18 t ) (* 1 s_19 t t ) ) 0) ) (>= (+ (* 1 c_20 ) (* 1 c_21 i ) (* 1 c_22 i j ) (* 1 c_23 i t ) (* 1 c_24 i i ) (* 1 c_25 j ) (* 1 c_26 j t ) (* 1 c_27 j j ) (* 1 c_28 t ) (* 1 c_29 t t ) ) 0) )))
(assert (forall ((t Real) (i Real) (j Real) ) (=> (and (>= (* 1 j ) 0) (>= (* 1 i ) 0) (>= (* (- 1) i ) 0) (>= (* (- 1) j ) 0) (>= (+ (* 1047552 1) (* (- 1024) j ) (* 2047 t ) ) 0) (>= (+ (* 1024 1) (* 1 i ) ) 0) (>= (+ (* 1024 1) (* 1 j ) ) 0) (>= (+ (* 1023 1) (* (- 1) j ) ) 0) (>= (+ (* 1023 1) (* (- 1) i ) ) 0) (>= (+ (* 1047552 1) (* 1023 j ) (* (- 2047) t ) ) 0) (>= (+ (* 1 i j s_12 ) (* 1 i s_11 ) (* 1 i s_13 t ) (* 1 i i s_14 ) (* 1 j s_15 ) (* 1 j s_16 t ) (* 1 j j s_17 ) (* 1 s_10 ) (* 1 s_18 t ) (* 1 s_19 t t ) ) 0) ) (>= (+ (* 1 i j s_22 ) (* 1 i s_21 ) (* 1 i s_23 t ) (* 1 i i s_24 ) (* 1 j s_25 ) (* 1 j s_26 t ) (* 1 j j s_27 ) (* 1 s_20 ) (* 1 s_28 t ) (* 1 s_29 t t ) ) 0) )))
(assert (forall ((t Real) (i Real) (j Real) ) (=> (and (>= (* 1 j ) 0) (>= (* 1 i ) 0) (>= (* (- 1) i ) 0) (>= (* (- 1) j ) 0) (>= (+ (* 1047552 1) (* (- 1024) j ) (* 2047 t ) ) 0) (>= (+ (* 1024 1) (* 1 i ) ) 0) (>= (+ (* 1024 1) (* 1 j ) ) 0) (>= (+ (* 1023 1) (* (- 1) j ) ) 0) (>= (+ (* 1023 1) (* (- 1) i ) ) 0) (>= (+ (* 1047552 1) (* 1023 j ) (* (- 2047) t ) ) 0) (>= (+ (* 1 i j s_12 ) (* 1 i s_11 ) (* 1 i s_13 t ) (* 1 i i s_14 ) (* 1 j s_15 ) (* 1 j s_16 t ) (* 1 j j s_17 ) (* 1 s_10 ) (* 1 s_18 t ) (* 1 s_19 t t ) ) 0) ) (>= (+ (* 1 c_20 ) (* 1 c_21 i ) (* 1 c_22 i j ) (* 1 c_23 i t ) (* 1 c_24 i i ) (* 1 c_25 j ) (* 1 c_26 j t ) (* 1 c_27 j j ) (* 1 c_28 t ) (* 1 c_29 t t ) ) 0) )))
(assert (forall ((t Real) (i Real) (j Real) ) (=> (and (>= (* 1 i ) 0) (>= (* (- 1) j ) 0) (>= (* (- 1) i ) 0) (>= (+ (* 1047552 1) (* (- 1024) j ) (* 2047 t ) ) 0) (>= (+ (* 1024 1) (* 1 i ) ) 0) (>= (+ (* 1024 1) (* 1 j ) ) 0) (>= (+ (* 1023 1) (* (- 1) j ) ) 0) (>= (+ (* 1023 1) (* (- 1) i ) ) 0) (>= (+ (* 1047552 1) (* 1023 j ) (* (- 2047) t ) ) 0) (>= (+ (* 1 i j s_12 ) (* 1 i s_11 ) (* 1 i s_13 t ) (* 1 i i s_14 ) (* 1 j s_15 ) (* 1 j s_16 t ) (* 1 j j s_17 ) (* 1 s_10 ) (* 1 s_18 t ) (* 1 s_19 t t ) ) 0) ) (>= (+ (* 1 i j s_22 ) (* 1 i s_21 ) (* 1 i s_23 t ) (* 1 i i s_24 ) (* 1 j s_25 ) (* 1 j s_26 t ) (* 1 j j s_27 ) (* 1 s_20 ) (* 1 s_28 t ) (* 1 s_29 t t ) ) 0) )))
(assert (forall ((t Real) (i Real) (j Real) ) (=> (and (>= (* 1 i ) 0) (>= (* (- 1) j ) 0) (>= (* (- 1) i ) 0) (>= (+ (* 1047552 1) (* (- 1024) j ) (* 2047 t ) ) 0) (>= (+ (* 1024 1) (* 1 i ) ) 0) (>= (+ (* 1024 1) (* 1 j ) ) 0) (>= (+ (* 1023 1) (* (- 1) j ) ) 0) (>= (+ (* 1023 1) (* (- 1) i ) ) 0) (>= (+ (* 1047552 1) (* 1023 j ) (* (- 2047) t ) ) 0) (>= (+ (* 1 i j s_12 ) (* 1 i s_11 ) (* 1 i s_13 t ) (* 1 i i s_14 ) (* 1 j s_15 ) (* 1 j s_16 t ) (* 1 j j s_17 ) (* 1 s_10 ) (* 1 s_18 t ) (* 1 s_19 t t ) ) 0) ) (>= (+ (* 1 c_20 ) (* 1 c_21 i ) (* 1 c_22 i j ) (* 1 c_23 i t ) (* 1 c_24 i i ) (* 1 c_25 j ) (* 1 c_26 j t ) (* 1 c_27 j j ) (* 1 c_28 t ) (* 1 c_29 t t ) ) 0) )))
(assert (forall ((t Real) (i Real) (j Real) ) (=> (and (>= (* 1 j ) 0) (>= (* (- 1) j ) 0) (>= (* (- 1) i ) 0) (>= (+ (* 1047552 1) (* (- 1024) j ) (* 2047 t ) ) 0) (>= (+ (* 1024 1) (* 1 i ) ) 0) (>= (+ (* 1024 1) (* 1 j ) ) 0) (>= (+ (* 1023 1) (* (- 1) j ) ) 0) (>= (+ (* 1023 1) (* (- 1) i ) ) 0) (>= (+ (* 1047552 1) (* 1023 j ) (* (- 2047) t ) ) 0) (>= (+ (* 1 i j s_12 ) (* 1 i s_11 ) (* 1 i s_13 t ) (* 1 i i s_14 ) (* 1 j s_15 ) (* 1 j s_16 t ) (* 1 j j s_17 ) (* 1 s_10 ) (* 1 s_18 t ) (* 1 s_19 t t ) ) 0) ) (>= (+ (* 1 i j s_22 ) (* 1 i s_21 ) (* 1 i s_23 t ) (* 1 i i s_24 ) (* 1 j s_25 ) (* 1 j s_26 t ) (* 1 j j s_27 ) (* 1 s_20 ) (* 1 s_28 t ) (* 1 s_29 t t ) ) 0) )))
(assert (forall ((t Real) (i Real) (j Real) ) (=> (and (>= (* 1 j ) 0) (>= (* (- 1) j ) 0) (>= (* (- 1) i ) 0) (>= (+ (* 1047552 1) (* (- 1024) j ) (* 2047 t ) ) 0) (>= (+ (* 1024 1) (* 1 i ) ) 0) (>= (+ (* 1024 1) (* 1 j ) ) 0) (>= (+ (* 1023 1) (* (- 1) j ) ) 0) (>= (+ (* 1023 1) (* (- 1) i ) ) 0) (>= (+ (* 1047552 1) (* 1023 j ) (* (- 2047) t ) ) 0) (>= (+ (* 1 i j s_12 ) (* 1 i s_11 ) (* 1 i s_13 t ) (* 1 i i s_14 ) (* 1 j s_15 ) (* 1 j s_16 t ) (* 1 j j s_17 ) (* 1 s_10 ) (* 1 s_18 t ) (* 1 s_19 t t ) ) 0) ) (>= (+ (* 1 c_20 ) (* 1 c_21 i ) (* 1 c_22 i j ) (* 1 c_23 i t ) (* 1 c_24 i i ) (* 1 c_25 j ) (* 1 c_26 j t ) (* 1 c_27 j j ) (* 1 c_28 t ) (* 1 c_29 t t ) ) 0) )))
(assert (forall ((t Real) (i Real) (j Real) ) (=> (and (>= (* 1 i ) 0) (>= (* 1 j ) 0) (>= (* (- 1) j ) 0) (>= (+ (* 1047552 1) (* (- 1024) j ) (* 2047 t ) ) 0) (>= (+ (* 1024 1) (* 1 i ) ) 0) (>= (+ (* 1024 1) (* 1 j ) ) 0) (>= (+ (* 1023 1) (* (- 1) j ) ) 0) (>= (+ (* 1023 1) (* (- 1) i ) ) 0) (>= (+ (* 1047552 1) (* 1023 j ) (* (- 2047) t ) ) 0) (>= (+ (* 1 i j s_12 ) (* 1 i s_11 ) (* 1 i s_13 t ) (* 1 i i s_14 ) (* 1 j s_15 ) (* 1 j s_16 t ) (* 1 j j s_17 ) (* 1 s_10 ) (* 1 s_18 t ) (* 1 s_19 t t ) ) 0) ) (>= (+ (* 1 i j s_22 ) (* 1 i s_21 ) (* 1 i s_23 t ) (* 1 i i s_24 ) (* 1 j s_25 ) (* 1 j s_26 t ) (* 1 j j s_27 ) (* 1 s_20 ) (* 1 s_28 t ) (* 1 s_29 t t ) ) 0) )))
(assert (forall ((t Real) (i Real) (j Real) ) (=> (and (>= (* 1 i ) 0) (>= (* 1 j ) 0) (>= (* (- 1) j ) 0) (>= (+ (* 1047552 1) (* (- 1024) j ) (* 2047 t ) ) 0) (>= (+ (* 1024 1) (* 1 i ) ) 0) (>= (+ (* 1024 1) (* 1 j ) ) 0) (>= (+ (* 1023 1) (* (- 1) j ) ) 0) (>= (+ (* 1023 1) (* (- 1) i ) ) 0) (>= (+ (* 1047552 1) (* 1023 j ) (* (- 2047) t ) ) 0) (>= (+ (* 1 i j s_12 ) (* 1 i s_11 ) (* 1 i s_13 t ) (* 1 i i s_14 ) (* 1 j s_15 ) (* 1 j s_16 t ) (* 1 j j s_17 ) (* 1 s_10 ) (* 1 s_18 t ) (* 1 s_19 t t ) ) 0) ) (>= (+ (* 1 c_20 ) (* 1 c_21 i ) (* 1 c_22 i j ) (* 1 c_23 i t ) (* 1 c_24 i i ) (* 1 c_25 j ) (* 1 c_26 j t ) (* 1 c_27 j j ) (* 1 c_28 t ) (* 1 c_29 t t ) ) 0) )))
(assert (forall ((t Real) (i Real) (j Real) ) (=> (and (>= (* 1 j ) 0) (>= (* 1 i ) 0) (>= (* (- 1) j ) 0) (>= (+ (* 1047552 1) (* (- 1024) j ) (* 2047 t ) ) 0) (>= (+ (* 1024 1) (* 1 i ) ) 0) (>= (+ (* 1024 1) (* 1 j ) ) 0) (>= (+ (* 1023 1) (* (- 1) j ) ) 0) (>= (+ (* 1023 1) (* (- 1) i ) ) 0) (>= (+ (* 1047552 1) (* 1023 j ) (* (- 2047) t ) ) 0) (>= (+ (* 1 i j s_12 ) (* 1 i s_11 ) (* 1 i s_13 t ) (* 1 i i s_14 ) (* 1 j s_15 ) (* 1 j s_16 t ) (* 1 j j s_17 ) (* 1 s_10 ) (* 1 s_18 t ) (* 1 s_19 t t ) ) 0) ) (>= (+ (* 1 i j s_22 ) (* 1 i s_21 ) (* 1 i s_23 t ) (* 1 i i s_24 ) (* 1 j s_25 ) (* 1 j s_26 t ) (* 1 j j s_27 ) (* 1 s_20 ) (* 1 s_28 t ) (* 1 s_29 t t ) ) 0) )))
(assert (forall ((t Real) (i Real) (j Real) ) (=> (and (>= (* 1 j ) 0) (>= (* 1 i ) 0) (>= (* (- 1) j ) 0) (>= (+ (* 1047552 1) (* (- 1024) j ) (* 2047 t ) ) 0) (>= (+ (* 1024 1) (* 1 i ) ) 0) (>= (+ (* 1024 1) (* 1 j ) ) 0) (>= (+ (* 1023 1) (* (- 1) j ) ) 0) (>= (+ (* 1023 1) (* (- 1) i ) ) 0) (>= (+ (* 1047552 1) (* 1023 j ) (* (- 2047) t ) ) 0) (>= (+ (* 1 i j s_12 ) (* 1 i s_11 ) (* 1 i s_13 t ) (* 1 i i s_14 ) (* 1 j s_15 ) (* 1 j s_16 t ) (* 1 j j s_17 ) (* 1 s_10 ) (* 1 s_18 t ) (* 1 s_19 t t ) ) 0) ) (>= (+ (* 1 c_20 ) (* 1 c_21 i ) (* 1 c_22 i j ) (* 1 c_23 i t ) (* 1 c_24 i i ) (* 1 c_25 j ) (* 1 c_26 j t ) (* 1 c_27 j j ) (* 1 c_28 t ) (* 1 c_29 t t ) ) 0) )))
(assert (forall ((t Real) (i Real) (j Real) ) (=> (and (>= (* 1 i ) 0) (>= (* (- 1) j ) 0) (>= (* 1 j ) 0) (>= (+ (* 1047552 1) (* (- 1024) j ) (* 2047 t ) ) 0) (>= (+ (* 1024 1) (* 1 i ) ) 0) (>= (+ (* 1024 1) (* 1 j ) ) 0) (>= (+ (* 1023 1) (* (- 1) j ) ) 0) (>= (+ (* 1023 1) (* (- 1) i ) ) 0) (>= (+ (* 1047552 1) (* 1023 j ) (* (- 2047) t ) ) 0) (>= (+ (* 1 i j s_12 ) (* 1 i s_11 ) (* 1 i s_13 t ) (* 1 i i s_14 ) (* 1 j s_15 ) (* 1 j s_16 t ) (* 1 j j s_17 ) (* 1 s_10 ) (* 1 s_18 t ) (* 1 s_19 t t ) ) 0) ) (>= (+ (* 1 i j s_22 ) (* 1 i s_21 ) (* 1 i s_23 t ) (* 1 i i s_24 ) (* 1 j s_25 ) (* 1 j s_26 t ) (* 1 j j s_27 ) (* 1 s_20 ) (* 1 s_28 t ) (* 1 s_29 t t ) ) 0) )))
(assert (forall ((t Real) (i Real) (j Real) ) (=> (and (>= (* 1 i ) 0) (>= (* (- 1) j ) 0) (>= (* 1 j ) 0) (>= (+ (* 1047552 1) (* (- 1024) j ) (* 2047 t ) ) 0) (>= (+ (* 1024 1) (* 1 i ) ) 0) (>= (+ (* 1024 1) (* 1 j ) ) 0) (>= (+ (* 1023 1) (* (- 1) j ) ) 0) (>= (+ (* 1023 1) (* (- 1) i ) ) 0) (>= (+ (* 1047552 1) (* 1023 j ) (* (- 2047) t ) ) 0) (>= (+ (* 1 i j s_12 ) (* 1 i s_11 ) (* 1 i s_13 t ) (* 1 i i s_14 ) (* 1 j s_15 ) (* 1 j s_16 t ) (* 1 j j s_17 ) (* 1 s_10 ) (* 1 s_18 t ) (* 1 s_19 t t ) ) 0) ) (>= (+ (* 1 c_20 ) (* 1 c_21 i ) (* 1 c_22 i j ) (* 1 c_23 i t ) (* 1 c_24 i i ) (* 1 c_25 j ) (* 1 c_26 j t ) (* 1 c_27 j j ) (* 1 c_28 t ) (* 1 c_29 t t ) ) 0) )))
(assert (forall ((t Real) (i Real) (j Real) ) (=> (and (>= (* 1 j ) 0) (>= (* (- 1) j ) 0) (>= (+ (* 1047552 1) (* (- 1024) j ) (* 2047 t ) ) 0) (>= (+ (* 1024 1) (* 1 i ) ) 0) (>= (+ (* 1024 1) (* 1 j ) ) 0) (>= (+ (* 1023 1) (* (- 1) j ) ) 0) (>= (+ (* 1023 1) (* (- 1) i ) ) 0) (>= (+ (* 1047552 1) (* 1023 j ) (* (- 2047) t ) ) 0) (>= (+ (* 1 i j s_12 ) (* 1 i s_11 ) (* 1 i s_13 t ) (* 1 i i s_14 ) (* 1 j s_15 ) (* 1 j s_16 t ) (* 1 j j s_17 ) (* 1 s_10 ) (* 1 s_18 t ) (* 1 s_19 t t ) ) 0) ) (>= (+ (* 1 i j s_22 ) (* 1 i s_21 ) (* 1 i s_23 t ) (* 1 i i s_24 ) (* 1 j s_25 ) (* 1 j s_26 t ) (* 1 j j s_27 ) (* 1 s_20 ) (* 1 s_28 t ) (* 1 s_29 t t ) ) 0) )))
(assert (forall ((t Real) (i Real) (j Real) ) (=> (and (>= (* 1 j ) 0) (>= (* (- 1) j ) 0) (>= (+ (* 1047552 1) (* (- 1024) j ) (* 2047 t ) ) 0) (>= (+ (* 1024 1) (* 1 i ) ) 0) (>= (+ (* 1024 1) (* 1 j ) ) 0) (>= (+ (* 1023 1) (* (- 1) j ) ) 0) (>= (+ (* 1023 1) (* (- 1) i ) ) 0) (>= (+ (* 1047552 1) (* 1023 j ) (* (- 2047) t ) ) 0) (>= (+ (* 1 i j s_12 ) (* 1 i s_11 ) (* 1 i s_13 t ) (* 1 i i s_14 ) (* 1 j s_15 ) (* 1 j s_16 t ) (* 1 j j s_17 ) (* 1 s_10 ) (* 1 s_18 t ) (* 1 s_19 t t ) ) 0) ) (>= (+ (* 1 c_20 ) (* 1 c_21 i ) (* 1 c_22 i j ) (* 1 c_23 i t ) (* 1 c_24 i i ) (* 1 c_25 j ) (* 1 c_26 j t ) (* 1 c_27 j j ) (* 1 c_28 t ) (* 1 c_29 t t ) ) 0) )))

(check-sat)
(get-model)
